(set-info :source |
 Generated by Alive 0.1
 More info in N. P. Lopes, D. Menendez, S. Nagarakatte, J. Regehr.
 Provably Correct Peephole Optimizations with Alive. In PLDI'15.
|)

(set-info :status unknown)
(declare-fun %y () (_ BitVec 28))
(declare-fun %x () (_ BitVec 28))
(assert
 (and (distinct (bvxor (bvand %x %y) (_ bv268435455 28)) (bvor (bvxor %x (_ bv268435455 28)) (bvxor %y (_ bv268435455 28)))) true))
(check-sat)
